; benchmark generated from python API
(set-info :status unknown)
(declare-fun strlen_85_64 () (_ BitVec 64))
(declare-fun args_1_8 () (_ BitVec 8))
(declare-fun strlen_83_64 () (_ BitVec 64))
(declare-fun strncmp_ret_84_32 () (_ BitVec 32))
(declare-fun strncmp_ret_86_32 () (_ BitVec 32))
(declare-fun filesize_file_0_/proc/self/loginuid_88_64 () (_ BitVec 64))
(declare-fun syscall_stub_ioctl_94_32 () (_ BitVec 32))
(declare-fun syscall_stub_newfstatat_118_64 () (_ BitVec 64))
(declare-fun syscall_stub_ioctl_2115_32 () (_ BitVec 32))
(declare-fun syscall_stub_newfstatat_2981_64 () (_ BitVec 64))
(declare-fun syscall_stub_readlink_3206_64 () (_ BitVec 64))
(declare-fun strlen_4642_64 () (_ BitVec 64))
(declare-fun mem_7fffffffffef42d_3371_3576 () (_ BitVec 3576))
(declare-fun mem_7fffffffffef42c_3320_8 () (_ BitVec 8))
(declare-fun mem_7fffffffffef428_3309_32 () (_ BitVec 32))
(declare-fun mem_7fffffffffef420_3300_64 () (_ BitVec 64))
(declare-fun syscall_stub_newfstatat_3394_64 () (_ BitVec 64))
(declare-fun mem_7fffffffffef038_3562_64 () (_ BitVec 64))
(declare-fun mem_7fffffffffeefa8_3567_64 () (_ BitVec 64))
(declare-fun mem_7fffffffffeefa0_3598_64 () (_ BitVec 64))
(declare-fun mem_7fffffffffef030_3595_64 () (_ BitVec 64))
(declare-fun mem_7fffffffffef048_3648_32 () (_ BitVec 32))
(declare-fun mem_7fffffffffeefc8_3725_64 () (_ BitVec 64))
(declare-fun mem_7fffffffffef058_3714_64 () (_ BitVec 64))
(declare-fun access_7098_32 () (_ BitVec 32))
(assert
 (let ((?x751 (bvadd (_ bv576460752303357826 64) strlen_85_64)))
 (let (($x69 (= (_ bv0 8) args_1_8)))
 (let ((?x46 (ite $x69 (_ bv576460752303357826 64) (_ bv576460752303357827 64))))
 (= ?x46 ?x751)))))
(assert
 (let ((?x101 (bvadd (_ bv576460752303357826 64) strlen_83_64)))
 (let (($x69 (= (_ bv0 8) args_1_8)))
 (let ((?x46 (ite $x69 (_ bv576460752303357826 64) (_ bv576460752303357827 64))))
 (= ?x46 ?x101)))))
(assert
 (let (($x104 (bvule (_ bv2 64) strlen_83_64)))
 (let (($x48 (= (_ bv2 64) strlen_83_64)))
 (let (($x122 (or $x48 $x104)))
 (let (($x123 (not $x122)))
 (let (($x57 (= (_ bv45 8) args_1_8)))
 (let (($x121 (not $x57)))
 (or $x121 $x123))))))))
(assert
 (= (_ bv1 32) strncmp_ret_84_32))
(assert
 (= (_ bv1 32) strncmp_ret_86_32))
(assert
 true)
(assert
 (let ((?x1236 ((_ extract 3 0) filesize_file_0_/proc/self/loginuid_88_64)))
 (let (($x1210 (bvsge (_ bv0 64) filesize_file_0_/proc/self/loginuid_88_64)))
 (let ((?x99 (ite $x1210 (_ bv0 4) ?x1236)))
 (let (($x1110 (bvule ?x99 (_ bv12 4))))
 (let (($x119703 (not $x1110)))
 (let ((?x1214 ((_ extract 63 63) filesize_file_0_/proc/self/loginuid_88_64)))
 (let (($x116245 (= (_ bv1 1) ?x1214)))
 (let (($x119835 (not $x116245)))
 (let ((?x1229 ((_ extract 63 4) filesize_file_0_/proc/self/loginuid_88_64)))
 (let (($x523 (= (_ bv0 60) ?x1229)))
 (let (($x516 (or $x1210 $x523)))
 (let (($x119942 (not $x516)))
 (let (($x119586 (or $x119942 $x119835 $x1210 $x119703)))
 (let (($x116912 (not $x119586)))
 (let (($x116860 (= (_ bv0 64) filesize_file_0_/proc/self/loginuid_88_64)))
 (let (($x117248 (or $x116860 $x1210)))
 (let (($x119482 (not $x117248)))
 (let (($x47155 (or $x119942 $x119703 $x119482)))
 (let (($x118344 (not $x47155)))
 (or $x118344 $x116912)))))))))))))))))))))
(assert
 (let (($x1210 (bvsge (_ bv0 64) filesize_file_0_/proc/self/loginuid_88_64)))
 (let ((?x1217 (ite $x1210 (_ bv0 64) filesize_file_0_/proc/self/loginuid_88_64)))
 (let ((?x1236 ((_ extract 3 0) filesize_file_0_/proc/self/loginuid_88_64)))
 (let ((?x99 (ite $x1210 (_ bv0 4) ?x1236)))
 (let (($x1110 (bvule ?x99 (_ bv12 4))))
 (let ((?x1229 ((_ extract 63 4) filesize_file_0_/proc/self/loginuid_88_64)))
 (let (($x523 (= (_ bv0 60) ?x1229)))
 (let (($x516 (or $x1210 $x523)))
 (let (($x975 (and $x516 $x1110)))
 (let ((?x1169 (ite $x975 ?x1217 (_ bv12 64))))
 (bvule ?x1169 (_ bv18446744073709547520 64)))))))))))))
(assert
 (= (_ bv0 32) syscall_stub_ioctl_94_32))
(assert
 (let ((?x40691 ((_ extract 31 0) syscall_stub_newfstatat_118_64)))
 (= (_ bv4294967262 32) ?x40691)))
(assert
 (let ((?x482349 ((_ extract 31 31) syscall_stub_ioctl_2115_32)))
 (= (_ bv0 1) ?x482349)))
(assert
 (let (($x479943 (= (_ bv0 32) syscall_stub_ioctl_2115_32)))
 (not $x479943)))
(assert
 (let ((?x486296 ((_ extract 31 0) syscall_stub_newfstatat_2981_64)))
 (bvule ?x486296 (_ bv4294963200 32))))
(assert
 (= (_ bv17870283321406196703 64) syscall_stub_readlink_3206_64))
(assert
 (let ((?x549565 (bvadd (_ bv576460752303354917 64) strlen_4642_64)))
 (let ((?x1234080 ((_ extract 3167 3160) mem_7fffffffffef42d_3371_3576)))
 (let (($x1234078 (= (_ bv0 8) ?x1234080)))
 (let ((?x1234079 (ite $x1234078 (_ bv576460752303354976 64) (_ bv0 64))))
 (let ((?x1234077 ((_ extract 3175 3168) mem_7fffffffffef42d_3371_3576)))
 (let (($x1234076 (= (_ bv0 8) ?x1234077)))
 (let ((?x1234082 (ite $x1234076 (_ bv576460752303354975 64) ?x1234079)))
 (let ((?x1234075 ((_ extract 3183 3176) mem_7fffffffffef42d_3371_3576)))
 (let (($x1234074 (= (_ bv0 8) ?x1234075)))
 (let ((?x1234083 (ite $x1234074 (_ bv576460752303354974 64) ?x1234082)))
 (let ((?x1234073 ((_ extract 3191 3184) mem_7fffffffffef42d_3371_3576)))
 (let (($x1234072 (= (_ bv0 8) ?x1234073)))
 (let ((?x1234084 (ite $x1234072 (_ bv576460752303354973 64) ?x1234083)))
 (let ((?x1234071 ((_ extract 3199 3192) mem_7fffffffffef42d_3371_3576)))
 (let (($x1234070 (= (_ bv0 8) ?x1234071)))
 (let ((?x1234085 (ite $x1234070 (_ bv576460752303354972 64) ?x1234084)))
 (let ((?x1234069 ((_ extract 3207 3200) mem_7fffffffffef42d_3371_3576)))
 (let (($x1234068 (= (_ bv0 8) ?x1234069)))
 (let ((?x1234086 (ite $x1234068 (_ bv576460752303354971 64) ?x1234085)))
 (let ((?x1234067 ((_ extract 3215 3208) mem_7fffffffffef42d_3371_3576)))
 (let (($x1234066 (= (_ bv0 8) ?x1234067)))
 (let ((?x1234087 (ite $x1234066 (_ bv576460752303354970 64) ?x1234086)))
 (let ((?x1234065 ((_ extract 3223 3216) mem_7fffffffffef42d_3371_3576)))
 (let (($x1234064 (= (_ bv0 8) ?x1234065)))
 (let ((?x1234088 (ite $x1234064 (_ bv576460752303354969 64) ?x1234087)))
 (let ((?x1234063 ((_ extract 3231 3224) mem_7fffffffffef42d_3371_3576)))
 (let (($x1234062 (= (_ bv0 8) ?x1234063)))
 (let ((?x1234089 (ite $x1234062 (_ bv576460752303354968 64) ?x1234088)))
 (let ((?x1234061 ((_ extract 3239 3232) mem_7fffffffffef42d_3371_3576)))
 (let (($x1234060 (= (_ bv0 8) ?x1234061)))
 (let ((?x1234090 (ite $x1234060 (_ bv576460752303354967 64) ?x1234089)))
 (let ((?x1234059 ((_ extract 3247 3240) mem_7fffffffffef42d_3371_3576)))
 (let (($x1234058 (= (_ bv0 8) ?x1234059)))
 (let ((?x1234091 (ite $x1234058 (_ bv576460752303354966 64) ?x1234090)))
 (let ((?x1234057 ((_ extract 3255 3248) mem_7fffffffffef42d_3371_3576)))
 (let (($x1234056 (= (_ bv0 8) ?x1234057)))
 (let ((?x1234092 (ite $x1234056 (_ bv576460752303354965 64) ?x1234091)))
 (let ((?x1234055 ((_ extract 3263 3256) mem_7fffffffffef42d_3371_3576)))
 (let (($x1234054 (= (_ bv0 8) ?x1234055)))
 (let ((?x1234093 (ite $x1234054 (_ bv576460752303354964 64) ?x1234092)))
 (let ((?x1234053 ((_ extract 3271 3264) mem_7fffffffffef42d_3371_3576)))
 (let (($x1234052 (= (_ bv0 8) ?x1234053)))
 (let ((?x1234094 (ite $x1234052 (_ bv576460752303354963 64) ?x1234093)))
 (let ((?x1234051 ((_ extract 3279 3272) mem_7fffffffffef42d_3371_3576)))
 (let (($x1234050 (= (_ bv0 8) ?x1234051)))
 (let ((?x1234095 (ite $x1234050 (_ bv576460752303354962 64) ?x1234094)))
 (let ((?x1234049 ((_ extract 3287 3280) mem_7fffffffffef42d_3371_3576)))
 (let (($x1234048 (= (_ bv0 8) ?x1234049)))
 (let ((?x1234096 (ite $x1234048 (_ bv576460752303354961 64) ?x1234095)))
 (let ((?x1234047 ((_ extract 3295 3288) mem_7fffffffffef42d_3371_3576)))
 (let (($x1234046 (= (_ bv0 8) ?x1234047)))
 (let ((?x1234097 (ite $x1234046 (_ bv576460752303354960 64) ?x1234096)))
 (let ((?x1234045 ((_ extract 3303 3296) mem_7fffffffffef42d_3371_3576)))
 (let (($x1234044 (= (_ bv0 8) ?x1234045)))
 (let ((?x1234098 (ite $x1234044 (_ bv576460752303354959 64) ?x1234097)))
 (let ((?x1234043 ((_ extract 3311 3304) mem_7fffffffffef42d_3371_3576)))
 (let (($x1234042 (= (_ bv0 8) ?x1234043)))
 (let ((?x1234099 (ite $x1234042 (_ bv576460752303354958 64) ?x1234098)))
 (let ((?x1234041 ((_ extract 3319 3312) mem_7fffffffffef42d_3371_3576)))
 (let (($x1234040 (= (_ bv0 8) ?x1234041)))
 (let ((?x1234100 (ite $x1234040 (_ bv576460752303354957 64) ?x1234099)))
 (let ((?x1234039 ((_ extract 3327 3320) mem_7fffffffffef42d_3371_3576)))
 (let (($x1234038 (= (_ bv0 8) ?x1234039)))
 (let ((?x1234101 (ite $x1234038 (_ bv576460752303354956 64) ?x1234100)))
 (let ((?x1234037 ((_ extract 3335 3328) mem_7fffffffffef42d_3371_3576)))
 (let (($x1234036 (= (_ bv0 8) ?x1234037)))
 (let ((?x1234102 (ite $x1234036 (_ bv576460752303354955 64) ?x1234101)))
 (let ((?x1234034 ((_ extract 3343 3336) mem_7fffffffffef42d_3371_3576)))
 (let (($x1234033 (= (_ bv0 8) ?x1234034)))
 (let ((?x1234103 (ite $x1234033 (_ bv576460752303354954 64) ?x1234102)))
 (let ((?x1234032 ((_ extract 3351 3344) mem_7fffffffffef42d_3371_3576)))
 (let (($x1234031 (= (_ bv0 8) ?x1234032)))
 (let ((?x1234104 (ite $x1234031 (_ bv576460752303354953 64) ?x1234103)))
 (let ((?x1234030 ((_ extract 3359 3352) mem_7fffffffffef42d_3371_3576)))
 (let (($x1234029 (= (_ bv0 8) ?x1234030)))
 (let ((?x1234105 (ite $x1234029 (_ bv576460752303354952 64) ?x1234104)))
 (let ((?x1234028 ((_ extract 3367 3360) mem_7fffffffffef42d_3371_3576)))
 (let (($x1234027 (= (_ bv0 8) ?x1234028)))
 (let ((?x1234106 (ite $x1234027 (_ bv576460752303354951 64) ?x1234105)))
 (let ((?x1234026 ((_ extract 3375 3368) mem_7fffffffffef42d_3371_3576)))
 (let (($x1234025 (= (_ bv0 8) ?x1234026)))
 (let ((?x1234107 (ite $x1234025 (_ bv576460752303354950 64) ?x1234106)))
 (let ((?x1234024 ((_ extract 3383 3376) mem_7fffffffffef42d_3371_3576)))
 (let (($x1234023 (= (_ bv0 8) ?x1234024)))
 (let ((?x1234108 (ite $x1234023 (_ bv576460752303354949 64) ?x1234107)))
 (let ((?x1234022 ((_ extract 3391 3384) mem_7fffffffffef42d_3371_3576)))
 (let (($x1234021 (= (_ bv0 8) ?x1234022)))
 (let ((?x1234109 (ite $x1234021 (_ bv576460752303354948 64) ?x1234108)))
 (let ((?x1234020 ((_ extract 3399 3392) mem_7fffffffffef42d_3371_3576)))
 (let (($x1234019 (= (_ bv0 8) ?x1234020)))
 (let ((?x1234110 (ite $x1234019 (_ bv576460752303354947 64) ?x1234109)))
 (let ((?x1234018 ((_ extract 3407 3400) mem_7fffffffffef42d_3371_3576)))
 (let (($x1234017 (= (_ bv0 8) ?x1234018)))
 (let ((?x1234111 (ite $x1234017 (_ bv576460752303354946 64) ?x1234110)))
 (let ((?x1234016 ((_ extract 3415 3408) mem_7fffffffffef42d_3371_3576)))
 (let (($x1234015 (= (_ bv0 8) ?x1234016)))
 (let ((?x1234113 (ite $x1234015 (_ bv576460752303354945 64) ?x1234111)))
 (let ((?x1234014 ((_ extract 3423 3416) mem_7fffffffffef42d_3371_3576)))
 (let (($x1234013 (= (_ bv0 8) ?x1234014)))
 (let ((?x1234112 (ite $x1234013 (_ bv576460752303354944 64) ?x1234113)))
 (let ((?x568022 ((_ extract 3431 3424) mem_7fffffffffef42d_3371_3576)))
 (let (($x567952 (= (_ bv0 8) ?x568022)))
 (let ((?x1234114 (ite $x567952 (_ bv576460752303354943 64) ?x1234112)))
 (let ((?x548528 ((_ extract 3439 3432) mem_7fffffffffef42d_3371_3576)))
 (let (($x567979 (= (_ bv0 8) ?x548528)))
 (let ((?x1234115 (ite $x567979 (_ bv576460752303354942 64) ?x1234114)))
 (let ((?x547601 ((_ extract 3447 3440) mem_7fffffffffef42d_3371_3576)))
 (let (($x486205 (= (_ bv0 8) ?x547601)))
 (let ((?x1234116 (ite $x486205 (_ bv576460752303354941 64) ?x1234115)))
 (let ((?x513055 ((_ extract 3455 3448) mem_7fffffffffef42d_3371_3576)))
 (let (($x513586 (= (_ bv0 8) ?x513055)))
 (let ((?x1234117 (ite $x513586 (_ bv576460752303354940 64) ?x1234116)))
 (let ((?x513350 ((_ extract 3463 3456) mem_7fffffffffef42d_3371_3576)))
 (let (($x513011 (= (_ bv0 8) ?x513350)))
 (let ((?x1234118 (ite $x513011 (_ bv576460752303354939 64) ?x1234117)))
 (let ((?x513064 ((_ extract 3471 3464) mem_7fffffffffef42d_3371_3576)))
 (let (($x513056 (= (_ bv0 8) ?x513064)))
 (let ((?x1234119 (ite $x513056 (_ bv576460752303354938 64) ?x1234118)))
 (let ((?x513347 ((_ extract 3479 3472) mem_7fffffffffef42d_3371_3576)))
 (let (($x517514 (= (_ bv0 8) ?x513347)))
 (let ((?x1234120 (ite $x517514 (_ bv576460752303354937 64) ?x1234119)))
 (let ((?x517517 ((_ extract 3487 3480) mem_7fffffffffef42d_3371_3576)))
 (let (($x517515 (= (_ bv0 8) ?x517517)))
 (let ((?x1234121 (ite $x517515 (_ bv576460752303354936 64) ?x1234120)))
 (let ((?x514623 ((_ extract 3495 3488) mem_7fffffffffef42d_3371_3576)))
 (let (($x513026 (= (_ bv0 8) ?x514623)))
 (let ((?x1234122 (ite $x513026 (_ bv576460752303354935 64) ?x1234121)))
 (let ((?x516762 ((_ extract 3503 3496) mem_7fffffffffef42d_3371_3576)))
 (let (($x515660 (= (_ bv0 8) ?x516762)))
 (let ((?x1234123 (ite $x515660 (_ bv576460752303354934 64) ?x1234122)))
 (let ((?x516986 ((_ extract 3511 3504) mem_7fffffffffef42d_3371_3576)))
 (let (($x517160 (= (_ bv0 8) ?x516986)))
 (let ((?x1234124 (ite $x517160 (_ bv576460752303354933 64) ?x1234123)))
 (let ((?x516317 ((_ extract 3519 3512) mem_7fffffffffef42d_3371_3576)))
 (let (($x516673 (= (_ bv0 8) ?x516317)))
 (let ((?x1234125 (ite $x516673 (_ bv576460752303354932 64) ?x1234124)))
 (let ((?x516353 ((_ extract 3527 3520) mem_7fffffffffef42d_3371_3576)))
 (let (($x516643 (= (_ bv0 8) ?x516353)))
 (let ((?x1234126 (ite $x516643 (_ bv576460752303354931 64) ?x1234125)))
 (let ((?x599840 ((_ extract 3535 3528) mem_7fffffffffef42d_3371_3576)))
 (let (($x511562 (= (_ bv0 8) ?x599840)))
 (let ((?x1234127 (ite $x511562 (_ bv576460752303354930 64) ?x1234126)))
 (let ((?x592431 ((_ extract 3543 3536) mem_7fffffffffef42d_3371_3576)))
 (let (($x511166 (= (_ bv0 8) ?x592431)))
 (let ((?x1234128 (ite $x511166 (_ bv576460752303354929 64) ?x1234127)))
 (let ((?x590720 ((_ extract 3551 3544) mem_7fffffffffef42d_3371_3576)))
 (let (($x510909 (= (_ bv0 8) ?x590720)))
 (let ((?x1234129 (ite $x510909 (_ bv576460752303354928 64) ?x1234128)))
 (let ((?x594725 ((_ extract 3559 3552) mem_7fffffffffef42d_3371_3576)))
 (let (($x734770 (= (_ bv0 8) ?x594725)))
 (let ((?x1234130 (ite $x734770 (_ bv576460752303354927 64) ?x1234129)))
 (let ((?x588570 ((_ extract 3567 3560) mem_7fffffffffef42d_3371_3576)))
 (let (($x477688 (= (_ bv0 8) ?x588570)))
 (let ((?x1234131 (ite $x477688 (_ bv576460752303354926 64) ?x1234130)))
 (let ((?x587774 ((_ extract 3575 3568) mem_7fffffffffef42d_3371_3576)))
 (let (($x568010 (= (_ bv0 8) ?x587774)))
 (let ((?x1234132 (ite $x568010 (_ bv576460752303354925 64) ?x1234131)))
 (let (($x1234011 (= (_ bv0 8) mem_7fffffffffef42c_3320_8)))
 (let ((?x1234133 (ite $x1234011 (_ bv576460752303354924 64) ?x1234132)))
 (let ((?x571985 ((_ extract 31 24) mem_7fffffffffef428_3309_32)))
 (let (($x1234010 (= (_ bv0 8) ?x571985)))
 (let ((?x1234134 (ite $x1234010 (_ bv576460752303354923 64) ?x1234133)))
 (let ((?x571726 ((_ extract 23 16) mem_7fffffffffef428_3309_32)))
 (let (($x1234008 (= (_ bv0 8) ?x571726)))
 (let ((?x1234135 (ite $x1234008 (_ bv576460752303354922 64) ?x1234134)))
 (let ((?x571984 ((_ extract 15 8) mem_7fffffffffef428_3309_32)))
 (let (($x1234007 (= (_ bv0 8) ?x571984)))
 (let ((?x1234136 (ite $x1234007 (_ bv576460752303354921 64) ?x1234135)))
 (let ((?x571725 ((_ extract 7 0) mem_7fffffffffef428_3309_32)))
 (let (($x1234004 (= (_ bv0 8) ?x571725)))
 (let ((?x1234137 (ite $x1234004 (_ bv576460752303354920 64) ?x1234136)))
 (let ((?x571721 ((_ extract 63 56) mem_7fffffffffef420_3300_64)))
 (let (($x1228282 (= (_ bv0 8) ?x571721)))
 (let ((?x1234138 (ite $x1228282 (_ bv576460752303354919 64) ?x1234137)))
 (let ((?x571979 ((_ extract 55 48) mem_7fffffffffef420_3300_64)))
 (let (($x1228553 (= (_ bv0 8) ?x571979)))
 (let ((?x1234141 (ite $x1228553 (_ bv576460752303354918 64) ?x1234138)))
 (let ((?x571720 ((_ extract 47 40) mem_7fffffffffef420_3300_64)))
 (let (($x1228285 (= (_ bv0 8) ?x571720)))
 (let ((?x1234139 (ite $x1228285 (_ bv576460752303354917 64) ?x1234141)))
 (= ?x1234139 ?x549565))))))))))))))))))))))))))))))))))))))))))))))))))))))))))))))))))))))))))))))))))))))))))))))))))))))))))))))))))))))))))))))))))))))))))))))))))))))))))))))))))))))))))))))))))))))
(assert
 (let ((?x533408 ((_ extract 7 0) mem_7fffffffffef420_3300_64)))
 (= (_ bv47 8) ?x533408)))
(assert
 (let ((?x1239734 ((_ extract 5 0) strlen_4642_64)))
 (let ((?x1239752 (bvadd (_ bv1 6) ?x1239734)))
 (let (($x1239149 (bvule (_ bv31 64) strlen_4642_64)))
 (let (($x1239331 (bvule strlen_4642_64 (_ bv18446744073709551614 64))))
 (let (($x1239746 (and $x1239331 $x1239149)))
 (let ((?x1239777 (ite $x1239746 (_ bv32 6) ?x1239752)))
 (bvule ?x1239777 (_ bv32 6)))))))))
(assert
 (let ((?x1239328 (bvadd (_ bv1 64) strlen_4642_64)))
 (let (($x1239149 (bvule (_ bv31 64) strlen_4642_64)))
 (let (($x1239331 (bvule strlen_4642_64 (_ bv18446744073709551614 64))))
 (let (($x1239746 (and $x1239331 $x1239149)))
 (let ((?x1239688 (ite $x1239746 (_ bv32 64) ?x1239328)))
 (bvule (_ bv1 64) ?x1239688)))))))
(assert
 (let ((?x571720 ((_ extract 47 40) mem_7fffffffffef420_3300_64)))
 (let (($x1228285 (= (_ bv0 8) ?x571720)))
 (let ((?x571979 ((_ extract 55 48) mem_7fffffffffef420_3300_64)))
 (let (($x1228553 (= (_ bv0 8) ?x571979)))
 (let ((?x571721 ((_ extract 63 56) mem_7fffffffffef420_3300_64)))
 (let (($x1228282 (= (_ bv0 8) ?x571721)))
 (let ((?x571984 ((_ extract 15 8) mem_7fffffffffef428_3309_32)))
 (let (($x1234007 (= (_ bv0 8) ?x571984)))
 (let ((?x571726 ((_ extract 23 16) mem_7fffffffffef428_3309_32)))
 (let (($x1234008 (= (_ bv0 8) ?x571726)))
 (let ((?x571985 ((_ extract 31 24) mem_7fffffffffef428_3309_32)))
 (let (($x1234010 (= (_ bv0 8) ?x571985)))
 (let (($x1234011 (= (_ bv0 8) mem_7fffffffffef42c_3320_8)))
 (let ((?x587774 ((_ extract 3575 3568) mem_7fffffffffef42d_3371_3576)))
 (let (($x568010 (= (_ bv0 8) ?x587774)))
 (let ((?x588570 ((_ extract 3567 3560) mem_7fffffffffef42d_3371_3576)))
 (let (($x477688 (= (_ bv0 8) ?x588570)))
 (let ((?x594725 ((_ extract 3559 3552) mem_7fffffffffef42d_3371_3576)))
 (let (($x734770 (= (_ bv0 8) ?x594725)))
 (let ((?x590720 ((_ extract 3551 3544) mem_7fffffffffef42d_3371_3576)))
 (let (($x510909 (= (_ bv0 8) ?x590720)))
 (let ((?x592431 ((_ extract 3543 3536) mem_7fffffffffef42d_3371_3576)))
 (let (($x511166 (= (_ bv0 8) ?x592431)))
 (let ((?x599840 ((_ extract 3535 3528) mem_7fffffffffef42d_3371_3576)))
 (let (($x511562 (= (_ bv0 8) ?x599840)))
 (let ((?x516353 ((_ extract 3527 3520) mem_7fffffffffef42d_3371_3576)))
 (let (($x516643 (= (_ bv0 8) ?x516353)))
 (let ((?x516317 ((_ extract 3519 3512) mem_7fffffffffef42d_3371_3576)))
 (let (($x516673 (= (_ bv0 8) ?x516317)))
 (let ((?x516986 ((_ extract 3511 3504) mem_7fffffffffef42d_3371_3576)))
 (let (($x517160 (= (_ bv0 8) ?x516986)))
 (let ((?x516762 ((_ extract 3503 3496) mem_7fffffffffef42d_3371_3576)))
 (let (($x515660 (= (_ bv0 8) ?x516762)))
 (let ((?x514623 ((_ extract 3495 3488) mem_7fffffffffef42d_3371_3576)))
 (let (($x513026 (= (_ bv0 8) ?x514623)))
 (let ((?x517517 ((_ extract 3487 3480) mem_7fffffffffef42d_3371_3576)))
 (let (($x517515 (= (_ bv0 8) ?x517517)))
 (let ((?x513347 ((_ extract 3479 3472) mem_7fffffffffef42d_3371_3576)))
 (let (($x517514 (= (_ bv0 8) ?x513347)))
 (let ((?x513064 ((_ extract 3471 3464) mem_7fffffffffef42d_3371_3576)))
 (let (($x513056 (= (_ bv0 8) ?x513064)))
 (let ((?x513350 ((_ extract 3463 3456) mem_7fffffffffef42d_3371_3576)))
 (let (($x513011 (= (_ bv0 8) ?x513350)))
 (let ((?x513055 ((_ extract 3455 3448) mem_7fffffffffef42d_3371_3576)))
 (let (($x513586 (= (_ bv0 8) ?x513055)))
 (let ((?x547601 ((_ extract 3447 3440) mem_7fffffffffef42d_3371_3576)))
 (let (($x486205 (= (_ bv0 8) ?x547601)))
 (let ((?x548528 ((_ extract 3439 3432) mem_7fffffffffef42d_3371_3576)))
 (let (($x567979 (= (_ bv0 8) ?x548528)))
 (let ((?x568022 ((_ extract 3431 3424) mem_7fffffffffef42d_3371_3576)))
 (let (($x567952 (= (_ bv0 8) ?x568022)))
 (let ((?x1234014 ((_ extract 3423 3416) mem_7fffffffffef42d_3371_3576)))
 (let (($x1234013 (= (_ bv0 8) ?x1234014)))
 (let ((?x1234016 ((_ extract 3415 3408) mem_7fffffffffef42d_3371_3576)))
 (let (($x1234015 (= (_ bv0 8) ?x1234016)))
 (let ((?x1234018 ((_ extract 3407 3400) mem_7fffffffffef42d_3371_3576)))
 (let (($x1234017 (= (_ bv0 8) ?x1234018)))
 (let ((?x1234020 ((_ extract 3399 3392) mem_7fffffffffef42d_3371_3576)))
 (let (($x1234019 (= (_ bv0 8) ?x1234020)))
 (let ((?x1234022 ((_ extract 3391 3384) mem_7fffffffffef42d_3371_3576)))
 (let (($x1234021 (= (_ bv0 8) ?x1234022)))
 (let ((?x1234024 ((_ extract 3383 3376) mem_7fffffffffef42d_3371_3576)))
 (let (($x1234023 (= (_ bv0 8) ?x1234024)))
 (let ((?x1234026 ((_ extract 3375 3368) mem_7fffffffffef42d_3371_3576)))
 (let (($x1234025 (= (_ bv0 8) ?x1234026)))
 (let ((?x1234028 ((_ extract 3367 3360) mem_7fffffffffef42d_3371_3576)))
 (let (($x1234027 (= (_ bv0 8) ?x1234028)))
 (let ((?x1234032 ((_ extract 3351 3344) mem_7fffffffffef42d_3371_3576)))
 (let (($x1234031 (= (_ bv0 8) ?x1234032)))
 (let ((?x1234030 ((_ extract 3359 3352) mem_7fffffffffef42d_3371_3576)))
 (let (($x1234029 (= (_ bv0 8) ?x1234030)))
 (let ((?x1234034 ((_ extract 3343 3336) mem_7fffffffffef42d_3371_3576)))
 (let (($x1234033 (= (_ bv0 8) ?x1234034)))
 (let ((?x1234037 ((_ extract 3335 3328) mem_7fffffffffef42d_3371_3576)))
 (let (($x1234036 (= (_ bv0 8) ?x1234037)))
 (let ((?x1234039 ((_ extract 3327 3320) mem_7fffffffffef42d_3371_3576)))
 (let (($x1234038 (= (_ bv0 8) ?x1234039)))
 (let ((?x1234041 ((_ extract 3319 3312) mem_7fffffffffef42d_3371_3576)))
 (let (($x1234040 (= (_ bv0 8) ?x1234041)))
 (let ((?x1234043 ((_ extract 3311 3304) mem_7fffffffffef42d_3371_3576)))
 (let (($x1234042 (= (_ bv0 8) ?x1234043)))
 (let ((?x1234045 ((_ extract 3303 3296) mem_7fffffffffef42d_3371_3576)))
 (let (($x1234044 (= (_ bv0 8) ?x1234045)))
 (let ((?x1234047 ((_ extract 3295 3288) mem_7fffffffffef42d_3371_3576)))
 (let (($x1234046 (= (_ bv0 8) ?x1234047)))
 (let ((?x1234049 ((_ extract 3287 3280) mem_7fffffffffef42d_3371_3576)))
 (let (($x1234048 (= (_ bv0 8) ?x1234049)))
 (let ((?x1234051 ((_ extract 3279 3272) mem_7fffffffffef42d_3371_3576)))
 (let (($x1234050 (= (_ bv0 8) ?x1234051)))
 (let ((?x1234053 ((_ extract 3271 3264) mem_7fffffffffef42d_3371_3576)))
 (let (($x1234052 (= (_ bv0 8) ?x1234053)))
 (let ((?x1234055 ((_ extract 3263 3256) mem_7fffffffffef42d_3371_3576)))
 (let (($x1234054 (= (_ bv0 8) ?x1234055)))
 (let ((?x1234057 ((_ extract 3255 3248) mem_7fffffffffef42d_3371_3576)))
 (let (($x1234056 (= (_ bv0 8) ?x1234057)))
 (let ((?x1234059 ((_ extract 3247 3240) mem_7fffffffffef42d_3371_3576)))
 (let (($x1234058 (= (_ bv0 8) ?x1234059)))
 (let ((?x1234061 ((_ extract 3239 3232) mem_7fffffffffef42d_3371_3576)))
 (let (($x1234060 (= (_ bv0 8) ?x1234061)))
 (let ((?x1234063 ((_ extract 3231 3224) mem_7fffffffffef42d_3371_3576)))
 (let (($x1234062 (= (_ bv0 8) ?x1234063)))
 (let ((?x1234065 ((_ extract 3223 3216) mem_7fffffffffef42d_3371_3576)))
 (let (($x1234064 (= (_ bv0 8) ?x1234065)))
 (let ((?x1234067 ((_ extract 3215 3208) mem_7fffffffffef42d_3371_3576)))
 (let (($x1234066 (= (_ bv0 8) ?x1234067)))
 (let ((?x1234069 ((_ extract 3207 3200) mem_7fffffffffef42d_3371_3576)))
 (let (($x1234068 (= (_ bv0 8) ?x1234069)))
 (let ((?x1234071 ((_ extract 3199 3192) mem_7fffffffffef42d_3371_3576)))
 (let (($x1234070 (= (_ bv0 8) ?x1234071)))
 (let ((?x1234073 ((_ extract 3191 3184) mem_7fffffffffef42d_3371_3576)))
 (let (($x1234072 (= (_ bv0 8) ?x1234073)))
 (let ((?x1234075 ((_ extract 3183 3176) mem_7fffffffffef42d_3371_3576)))
 (let (($x1234074 (= (_ bv0 8) ?x1234075)))
 (let ((?x1234077 ((_ extract 3175 3168) mem_7fffffffffef42d_3371_3576)))
 (let (($x1234076 (= (_ bv0 8) ?x1234077)))
 (let ((?x1234080 ((_ extract 3167 3160) mem_7fffffffffef42d_3371_3576)))
 (let (($x1234078 (= (_ bv0 8) ?x1234080)))
 (let ((?x571725 ((_ extract 7 0) mem_7fffffffffef428_3309_32)))
 (let (($x1234004 (= (_ bv0 8) ?x571725)))
 (or $x1234004 $x1234078 $x1234076 $x1234074 $x1234072 $x1234070 $x1234068 $x1234066 $x1234064 $x1234062 $x1234060 $x1234058 $x1234056 $x1234054 $x1234052 $x1234050 $x1234048 $x1234046 $x1234044 $x1234042 $x1234040 $x1234038 $x1234036 $x1234033 $x1234029 $x1234031 $x1234027 $x1234025 $x1234023 $x1234021 $x1234019 $x1234017 $x1234015 $x1234013 $x567952 $x567979 $x486205 $x513586 $x513011 $x513056 $x517514 $x517515 $x513026 $x515660 $x517160 $x516673 $x516643 $x511562 $x511166 $x510909 $x734770 $x477688 $x568010 $x1234011 $x1234010 $x1234008 $x1234007 $x1228282 $x1228553 $x1228285)))))))))))))))))))))))))))))))))))))))))))))))))))))))))))))))))))))))))))))))))))))))))))))))))))))))))))))))))))))))))
(assert
 (let (($x1239149 (bvule (_ bv31 64) strlen_4642_64)))
 (let (($x1239345 (not $x1239149)))
 (let (($x1239331 (bvule strlen_4642_64 (_ bv18446744073709551614 64))))
 (let (($x1239338 (not $x1239331)))
 (let (($x1239346 (or $x1239338 $x1239345)))
 (let (($x1239671 (not $x1239346)))
 (let ((?x1239328 (bvadd (_ bv1 64) strlen_4642_64)))
 (let ((?x1239659 ((_ extract 63 6) ?x1239328)))
 (let (($x1239182 (= (_ bv0 58) ?x1239659)))
 (or $x1239182 $x1239671)))))))))))
(assert
 (let ((?x567955 ((_ extract 31 0) syscall_stub_newfstatat_3394_64)))
 (bvule ?x567955 (_ bv4294963200 32))))
(assert
 (= mem_7fffffffffeefa8_3567_64 mem_7fffffffffef038_3562_64))
(assert
 (= mem_7fffffffffef030_3595_64 mem_7fffffffffeefa0_3598_64))
(assert
 (let ((?x559698 ((_ extract 15 12) mem_7fffffffffef048_3648_32)))
 (= (_ bv2 4) ?x559698)))
(assert
 (= mem_7fffffffffef058_3714_64 mem_7fffffffffeefc8_3725_64))
(assert
 (let (($x1376662 (= (_ bv4294967295 32) access_7098_32)))
 (let (($x891130 (= (_ bv0 32) access_7098_32)))
 (or $x891130 $x1376662))))
(assert
 (= (_ bv0 32) access_7098_32))
(maximize mem_7fffffffffeefa8_3567_64)
(minimize mem_7fffffffffef058_3714_64)
(maximize syscall_stub_newfstatat_118_64)
(maximize mem_7fffffffffef030_3595_64)
(maximize syscall_stub_newfstatat_2981_64)
(maximize syscall_stub_ioctl_94_32)
(maximize strncmp_ret_84_32)
(minimize strncmp_ret_84_32)
(minimize syscall_stub_readlink_3206_64)
(minimize strncmp_ret_86_32)
(maximize syscall_stub_readlink_3206_64)
(minimize syscall_stub_newfstatat_118_64)
(minimize syscall_stub_newfstatat_2981_64)
(minimize syscall_stub_ioctl_2115_32)
(minimize mem_7fffffffffef048_3648_32)
(minimize mem_7fffffffffeefc8_3725_64)
(minimize syscall_stub_ioctl_94_32)
(minimize filesize_file_0_/proc/self/loginuid_88_64)
(maximize strlen_4642_64)
(minimize strlen_83_64)
(minimize mem_7fffffffffef038_3562_64)
(maximize mem_7fffffffffef038_3562_64)
(maximize mem_7fffffffffef428_3309_32)
(maximize args_1_8)
(maximize syscall_stub_newfstatat_3394_64)
(maximize syscall_stub_ioctl_2115_32)
(maximize strncmp_ret_86_32)
(minimize mem_7fffffffffef030_3595_64)
(minimize syscall_stub_newfstatat_3394_64)
(minimize mem_7fffffffffef420_3300_64)
(maximize strlen_85_64)
(minimize mem_7fffffffffeefa0_3598_64)
(maximize filesize_file_0_/proc/self/loginuid_88_64)
(maximize mem_7fffffffffef048_3648_32)
(minimize mem_7fffffffffef42d_3371_3576)
(maximize mem_7fffffffffeefa0_3598_64)
(minimize access_7098_32)
(minimize strlen_85_64)
(maximize access_7098_32)
(maximize mem_7fffffffffef058_3714_64)
(minimize args_1_8)
(maximize mem_7fffffffffef420_3300_64)
(minimize strlen_4642_64)
(minimize mem_7fffffffffeefa8_3567_64)
(maximize mem_7fffffffffef42c_3320_8)
(minimize mem_7fffffffffef428_3309_32)
(maximize mem_7fffffffffef42d_3371_3576)
(maximize strlen_83_64)
(check-sat)
(get-objectives)
